LAMMPS (22 Jul 2025 - Update 4)
Lattice spacing in x,y,z = 4.7835 2.761755 5.185314
Created orthogonal box = (0 0 0) to (114.804 66.28212 82.965024)
  2 by 1 by 2 MPI processor grid
Created 55296 atoms
  using lattice units in orthogonal box = (0 0 0) to (114.804 66.28212 82.965024)
  create_atoms CPU = 0.002 seconds
Neighbor list info ...
  update: every = 1 steps, delay = 0 steps, check = yes
  max neighbors/atom: 2000, page size: 100000
  master list distance cutoff = 5.1
  ghost atom cutoff = 5.1
  binsize = 2.55, bins = 46 26 33
  2 neighbor lists, perpetual/occasional/extra = 2 0 0
  (1) pair tersoff, perpetual
      attributes: full, newton on, cut 5.1
      pair build: full/bin/atomonly
      stencil: full/bin/3d
      bin: standard
  (2) pair zbl, perpetual, half/full from (1)
      attributes: half, newton on
      pair build: halffull/newton
      stencil: none
      bin: none
Setting up cg style minimization ...
  Unit style    : metal
  Current step  : 0
Per MPI rank memory allocation (min/avg/max) = 11.44 | 11.44 | 11.44 Mbytes
   Step          Temp          Press          PotEng         KinEng         TotEng           Lx             Ly             Lz            Pxx            Pyy            Pzz      
         0   0              14656465       5112225        0              5112225        114.804        66.28212       82.965024      16537.152      16539.298      43936318     
        55   0             -97666.629     -218229.38      0             -218229.38      114.804        66.28212       82.965024     -81110.05      -81110.173     -130779.67    
Loop time of 5.85189 on 4 procs for 55 steps with 55296 atoms

96.8% CPU use with 4 MPI tasks x no OpenMP threads

Minimization stats:
  Stopping criterion = energy tolerance
  Energy initial, next-to-last, final = 
       5112225.0420549  -218229.381354091   -218229.38161021
  Force two-norm initial, final = 321209.55 0.0084838404
  Force max component initial, final = 1931.9498 5.1462846e-05
  Final line search alpha, max atom move = 1 5.1462846e-05
  Iterations, force evaluations = 55 103

MPI task timing breakdown:
Section |  min time  |  avg time  |  max time  |%varavg| %total
---------------------------------------------------------------
Pair    | 5.0768     | 5.139      | 5.2877     |   3.8 | 87.82
Neigh   | 0.011561   | 0.014182   | 0.016064   |   1.5 |  0.24
Comm    | 0.49666    | 0.64525    | 0.70663    |  10.7 | 11.03
Output  | 0          | 0          | 0          |   0.0 |  0.00
Modify  | 0          | 0          | 0          |   0.0 |  0.00
Other   |            | 0.05349    |            |       |  0.91

Nlocal:          13824 ave       13824 max       13824 min
Histogram: 4 0 0 0 0 0 0 0 0 0
Nghost:           9836 ave        9836 max        9836 min
Histogram: 4 0 0 0 0 0 0 0 0 0
Neighs:         328320 ave      328561 max      328079 min
Histogram: 2 0 0 0 0 0 0 0 0 2
FullNghs:       656640 ave      656640 max      656640 min
Histogram: 4 0 0 0 0 0 0 0 0 0

Total # of neighbors = 2626560
Ave neighs/atom = 47.5
Neighbor list builds = 1
Dangerous builds = 0
Setting up Verlet run ...
  Unit style    : metal
  Current step  : 0
  Time step     : 0.001
Per MPI rank memory allocation (min/avg/max) = 9.963 | 9.963 | 9.963 Mbytes
   Step          Temp          Press          PotEng         KinEng         TotEng           Lx             Ly             Lz            Pxx            Pyy            Pzz      
         0   300           -94038.837     -218229.38      2144.2319     -216085.15      114.804        66.28212       82.965024     -77464.194     -77488.407     -127163.91    
      1000   280.83128     -77694.324     -216142.17      2007.2247     -214134.95      114.804        66.28212       82.965024     -70921.979     -71160.364     -91000.63     
      2000   304.47264     -76577.22      -215967.3       2176.1999     -213791.1       114.804        66.28212       82.965024     -74569.331     -74807.238     -80355.092    
      3000   297.18305     -77550.524     -216063         2124.0979     -213938.9       114.804        66.28212       82.965024     -76411.049     -76739.399     -79501.123    
      4000   301.022       -76966.876     -216128.13      2151.5366     -213976.6       114.804        66.28212       82.965024     -76724.752     -76386.886     -77788.99     
      5000   302.25826     -76700.263     -216226.13      2160.3727     -214065.76      114.804        66.28212       82.965024     -77005.632     -76737.402     -76357.756    
      6000   299.45532     -76968.679     -216303.28      2140.3388     -214162.94      114.804        66.28212       82.965024     -77827.823     -77181.158     -75897.057    
      7000   301.11656     -76897.348     -216367.07      2152.2124     -214214.86      114.804        66.28212       82.965024     -78215.117     -77717.801     -74759.126    
      8000   300.21376     -76480.699     -216483.38      2145.7598     -214337.62      114.804        66.28212       82.965024     -78252.986     -77447.116     -73741.996    
      9000   299.50071     -75874.977     -216558.89      2140.6633     -214418.22      114.804        66.28212       82.965024     -77621.836     -76948.695     -73054.4      
     10000   300.32044     -75924.022     -216652.94      2146.5222     -214506.41      114.804        66.28212       82.965024     -77593.618     -78063.054     -72115.394    
     11000   299.75622     -75673.544     -216782.85      2142.4895     -214640.36      114.804        66.28212       82.965024     -78004.408     -77581.807     -71434.418    
     12000   300.79668     -74990.185     -216878.71      2149.9261     -214728.79      114.804        66.28212       82.965024     -77458.877     -77987.637     -69524.042    
     13000   299.24232     -74767.777     -216991.49      2138.8165     -214852.68      114.804        66.28212       82.965024     -77461.396     -77853.237     -68988.699    
     14000   300.65485     -74732.092     -217126.15      2148.9124     -214977.24      114.804        66.28212       82.965024     -78003.853     -78165.508     -68026.913    
     15000   300.92312     -74631.255     -217240.05      2150.8298     -215089.22      114.804        66.28212       82.965024     -77756.272     -77819.967     -68317.526    
     16000   300.51526     -74495.809     -217355.84      2147.9147     -215207.92      114.804        66.28212       82.965024     -78005.282     -78388.779     -67093.364    
     17000   299.56051     -74058.494     -217490.54      2141.0907     -215349.45      114.804        66.28212       82.965024     -77892.743     -78330.784     -65951.954    
     18000   301.24833     -73834.642     -217614.66      2153.1543     -215461.51      114.804        66.28212       82.965024     -77966.61      -77981.222     -65556.094    
     19000   300.11886     -73175.7       -217793.32      2145.0814     -215648.24      114.804        66.28212       82.965024     -77196.579     -78086.791     -64243.729    
     20000   302.13643     -73014.107     -217925.41      2159.5019     -215765.9       114.804        66.28212       82.965024     -77730.46      -78900.271     -62411.591    
Loop time of 1937.9 on 4 procs for 20000 steps with 55296 atoms

Performance: 0.892 ns/day, 26.915 hours/ns, 10.320 timesteps/s, 570.680 katom-step/s
94.7% CPU use with 4 MPI tasks x no OpenMP threads

MPI task timing breakdown:
Section |  min time  |  avg time  |  max time  |%varavg| %total
---------------------------------------------------------------
Pair    | 1817.4     | 1833.8     | 1843.2     |  23.9 | 94.63
Neigh   | 0.077895   | 0.079727   | 0.08214    |   0.6 |  0.00
Comm    | 83.135     | 92.485     | 109        | 106.8 |  4.77
Output  | 0.030476   | 0.031392   | 0.032756   |   0.5 |  0.00
Modify  | 7.757      | 7.9094     | 8.1644     |   5.6 |  0.41
Other   |            | 3.557      |            |       |  0.18

Nlocal:          13824 ave       13885 max       13763 min
Histogram: 1 0 0 0 1 1 0 0 0 1
Nghost:        9820.25 ave        9879 max        9762 min
Histogram: 1 0 0 0 1 1 0 0 0 1
Neighs:         320103 ave      321570 max      318925 min
Histogram: 1 0 0 1 1 0 0 0 0 1
FullNghs:       640206 ave      643104 max      637759 min
Histogram: 1 0 0 1 0 1 0 0 0 1

Total # of neighbors = 2560826
Ave neighs/atom = 46.311234
Neighbor list builds = 2
Dangerous builds = 0
Setting up Verlet run ...
  Unit style    : metal
  Current step  : 20000
  Time step     : 0.001
Per MPI rank memory allocation (min/avg/max) = 9.963 | 9.963 | 9.963 Mbytes
   Step          Temp          Press          PotEng         KinEng         TotEng           Lx             Ly             Lz            Pxx            Pyy            Pzz      
     20000   302.13643     -73014.107     -217925.41      2159.5019     -215765.9       114.804        66.28212       82.965024     -77730.46      -78900.271     -62411.591    
     21000   299.90602      229.00173     -218748.45      2143.5602     -216604.89      112.3525       64.853634      83.331306      262.16493      279.89038      144.94989    
     22000   298.91935     -509.18077     -218822.83      2136.5081     -216686.32      112.34922      64.816297      83.366443     -964.77368     -268.74423     -294.02439    
     23000   300.19924     -637.01009     -218866.15      2145.656      -216720.49      112.31845      64.817189      83.396717     -160.43079     -776.71528     -973.88418    
     24000   300.35292      544.44038     -218894.93      2146.7544     -216748.18      112.32633      64.829071      83.356742      341.12708      597.35649      694.83757    
     25000   300.26531     -667.88945     -218939.48      2146.1282     -216793.35      112.38886      64.813963      83.36609      -1153.7464     -1107.1272      257.20524    
     26000   301.88894      538.95263     -218992.45      2157.733      -216834.72      112.33486      64.809069      83.375302     -123.41736      1107.4084      632.86689    
     27000   299.30838      56.696201     -219039.55      2139.2886     -216900.26      112.35772      64.840723      83.350438     -36.361459     -94.22174       300.6718     
     28000   298.61064      430.62522     -219089.77      2134.3015     -216955.47      112.32241      64.821721      83.394152      897.65796      1142.0985     -747.88075    
     29000   299.7527       96.180028     -219126.11      2142.4643     -216983.65      112.33231      64.819274      83.392747      152.30555      165.42027     -29.185736    
     30000   300.37866      485.73982     -219164.6       2146.9384     -217017.66      112.33641      64.835243      83.388007      1155.6016      449.53434     -147.91652    
     31000   301.16547     -677.69417     -219216.77      2152.562      -217064.21      112.37445      64.843228      83.38067      -329.11423     -993.53316     -710.43512    
     32000   300.63831      213.88962     -219249.9       2148.7942     -217101.11      112.3749       64.823595      83.386975      168.99582      728.49762     -255.82456    
     33000   300.16367     -500.67936     -219288.89      2145.4017     -217143.49      112.35211      64.833213      83.411344     -13.656885     -250.80239     -1237.5788    
     34000   299.05885     -88.319491     -219327.61      2137.5051     -217190.11      112.37655      64.851041      83.361664     -129.72798     -55.693098     -79.537395    
     35000   299.5206       312.32988     -219363.88      2140.8054     -217223.08      112.38208      64.827201      83.391928      676.16324      556.01567     -295.18928    
     36000   300.68968     -496.75406     -219401.12      2149.1613     -217251.96      112.35347      64.850678      83.398409     -123.05497     -380.80612     -986.40107    
     37000   298.77593      834.22098     -219437.87      2135.4829     -217302.38      112.4017       64.835784      83.36328       43.710006      697.25714      1761.6958    
     38000   298.78137      1089.129      -219484.95      2135.5219     -217349.43      112.37632      64.820342      83.38492       1006.4112      1209.6016      1051.3744    
     39000   300.34859      657.97403     -219538.76      2146.7234     -217392.03      112.38396      64.812026      83.395882      499.19247      578.90088      895.82874    
     40000   301.4372       504.7216      -219583.01      2154.5042     -217428.59      112.6218       65.461858      83.071971     -1284.1558     -914.57116     -443.58445    
     41000   300.40333      89.853331     -229470.59      2147.1147     -227323.47      112.60472      65.453207      83.078243     -404.70897      83.419392      590.84957    
     42000   299.01556      290.8169      -229506.77      2137.1957     -227369.57      112.63286      65.441646      83.07245       849.91879      346.71241     -324.1805     
     43000   300.63787     -195.712       -229590.66      2148.791      -227441.87      112.61045      65.464222      83.087293      254.47094     -163.04858     -678.55836    
     44000   300.46687      843.32233     -229684.48      2147.5688     -227536.91      112.62069      65.465265      83.064108      1247.5404      811.13517      471.29143    
     45000   302.68395     -401.47145     -229814.01      2163.4153     -227650.6       112.67846      65.441703      83.086269     -1590.6339      815.7755      -429.55593    
     46000   300.43078     -407.88144     -229944.47      2147.3109     -227797.16      112.62146      65.482765      83.078526     -279.77193     -353.96079     -589.91162    
     47000   301.79641     -7.6667984     -230127.77      2157.0716     -227970.7       112.60239      65.480234      83.092836     -466.96766      33.16587       410.8014     
     48000   301.60935     -1226.5556     -230284.9       2155.7347     -228129.16      112.59377      65.511512      83.111679     -378.07113     -989.67797     -2311.9178    
     49000   300.67452     -126.60903     -230524.54      2149.053      -228375.49      112.67861      65.477792      83.081754     -584.53056      785.88997     -581.18649    
     50000   303.67037     -187.61591     -230812.43      2170.4656     -228641.96      112.72756      65.457352      83.08838      -517.79246      652.93915     -697.99441    
     51000   302.93574      637.81033     -231136.47      2165.215      -228971.26      112.68873      65.508484      83.034842      1856.816      -222.72454      279.33955    
     52000   298.17227      262.54571     -231424.16      2131.1683     -229292.99      112.74469      65.499896      83.025589     -181.64886      488.21341      481.0726     
     53000   303.514        263.8479      -231688.22      2169.348      -229518.87      112.76391      65.496347      83.025305     -204.62288      714.90434      281.26224    
     54000   304.00199      31.038427     -231945.04      2172.8359     -229772.2       112.79713      65.515881      83.030571      278.49322     -3.0513751     -182.32656    
     55000   302.55125      29.848783     -232374.98      2162.4668     -230212.51      112.87709      65.513628      82.990339      114.20234     -325.50149      300.84549    
     56000   304.78136      88.802563     -232851.77      2178.4064     -230673.36      112.91359      65.527292      82.98675      -26.762698      254.61902      38.551362    
     57000   301.71694     -213.3506      -220856.35      2156.5036     -218699.84      112.44104      64.889348      83.415266     -361.95635     -553.17951      275.08407    
     58000   301.03029      180.74702     -220949.02      2151.5959     -218797.43      112.43995      64.866047      83.432689      703.59186      458.31058     -619.66138    
     59000   300.79237     -317.47324     -221049.26      2149.8954     -218899.36      112.42773      64.913591      83.406663      62.16576      -955.93859     -58.646888    
     60000   299.77202      873.89893     -221176.71      2142.6025     -219034.1       112.447        64.88382       83.423354      899.33242      1195.7399      526.6245     
     61000   300.51798     -270.16134     -221316.85      2147.9341     -219168.92      112.47759      64.880659      83.432212     -148.87842     -9.7498882     -651.8557     
     62000   300.46057     -600.16254     -221455.12      2147.5238     -219307.59      112.52715      64.873725      83.421798     -1286.4563      446.55779     -960.58916    
     63000   301.82853     -63.587766     -221580.68      2157.3013     -219423.38      112.47445      64.528647      82.848788     -264.92856      79.843299     -1010.643     
     64000   302.42514      431.99485     -237220.46      2161.5655     -235058.9       113.37842      65.535661      82.830589      485.14983     -48.552151      859.38688    
     65000   301.75144      68.643693     -237683.09      2156.7503     -235526.34      113.3914       65.568758      82.808532     -15.982819      442.05696     -220.14306    
     66000   301.21096     -301.18729     -237924.63      2152.8872     -235771.74      113.42764      65.571087      82.824702     -249.39847     -84.766313     -569.39708    
     67000   304.88853      407.35422     -238267.28      2179.1724     -236088.11      113.45428      65.585394      82.792897      228.98916      436.22335      556.85016    
     68000   303.13717     -875.55055     -238712.78      2166.6547     -236546.13      113.48525      65.597437      82.787313     -1151.7471     -982.74259     -492.16192    
     69000   304.55224     -976.04171     -239265.48      2176.7688     -237088.72      113.52308      65.623371      82.750268     -632.26346     -354.33033     -1941.5313    
     70000   302.2051       165.81586     -239748.72      2159.9928     -237588.73      113.49986      65.627332      82.754639      338.02359      1230.9337     -1071.5097    
Loop time of 55721.2 on 1 procs for 50000 steps with 55296 atoms

Performance: 0.078 ns/day, 309.562 hours/ns, 0.897 timesteps/s, 49.618 katom-step/s
24.1% CPU use with 1 MPI tasks x no OpenMP threads

MPI task timing breakdown:
Section |  min time  |  avg time  |  max time  |%varavg| %total
---------------------------------------------------------------
Pair    | 53415      | 53415      | 53415      |   0.0 | 95.86
Neigh   | 40.136     | 40.136     | 40.136     |   0.0 |  0.07
Comm    | 6.5317     | 6.5317     | 6.5317     |   0.0 |  0.01
Output  | 0.044826   | 0.044826   | 0.044826   |   0.0 |  0.00
Modify  | 2253.2     | 2253.2     | 2253.2     |   0.0 |  4.04
Other   |            | 6.593      |            |       |  0.01

Nlocal:          55296 ave       55296 max       55296 min
Histogram: 1 0 0 0 0 0 0 0 0 0
Nghost:          22998 ave       22998 max       22998 min
Histogram: 1 0 0 0 0 0 0 0 0 0
Neighs:    1.28524e+06 ave 1.28524e+06 max 1.28524e+06 min
Histogram: 1 0 0 0 0 0 0 0 0 0
FullNghs:  2.57047e+06 ave 2.57047e+06 max 2.57047e+06 min
Histogram: 1 0 0 0 0 0 0 0 0 0

Total # of neighbors = 2570474
Ave neighs/atom = 46.485713
Neighbor list builds = 378
Dangerous builds = 0
Setting up Verlet run ...
  Unit style    : metal
  Current step  : 70000
  Time step     : 0.001
Per MPI rank memory allocation (min/avg/max) = 31.41 | 31.41 | 31.41 Mbytes
   Step          Temp          Press          PotEng         KinEng         TotEng           Lx             Ly             Lz            Pxx            Pyy            Pzz      
     70000   302.2051       165.81586     -239748.72      2159.9928     -237588.73      113.49986      65.627332      82.754639      338.02359      1230.9337     -1071.5097    
     71000   302.76894      783.06722     -240078.11      2164.0228     -237914.09      113.49986      65.627332      82.754639      964.97622      1155.2162      229.00929    
     72000   301.74305      556.44591     -240464.11      2156.6902     -238307.42      113.49986      65.627332      82.754639      597.63448      1772.9617     -701.25846    
     73000   302.51117      1160.2866     -240853.98      2162.1803     -238691.8       113.49986      65.627332      82.754639      1607.799       2902.526      -1029.4651    
     74000   302.11866      1458.5842     -241202.94      2159.3749     -239043.57      113.49986      65.627332      82.754639      2751.0763      2836.9536     -1212.2773    
     75000   310.47305      2045.0074     -241813.43      2219.0874     -239594.35      113.49986      65.627332      82.754639      3190.8327      4149.4371     -1205.2477    
     76000   302.22717      2538.8809     -242466.33      2160.1505     -240306.18      113.49986      65.627332      82.754639      4090.6384      4939.799      -1413.7946    
     77000   301.05091      2684.0951     -242767.17      2151.7432     -240615.43      113.49986      65.627332      82.754639      4690.5951      5955.3831     -2593.6928    
     78000   302.12213      2913.2922     -243043.63      2159.3997     -240884.23      113.49986      65.627332      82.754639      5571.0999      5578.9464     -2410.1696    
     79000   300.54279      3084.1841     -243253.03      2148.1115     -241104.92      113.49986      65.627332      82.754639      5578.4873      6461.9316     -2787.8666    
     80000   297.49112      3412.2797     -243332.87      2126.2999     -241206.57      113.49986      65.627332      82.754639      5882.855       6737.7119     -2383.728     
     81000   300.66557      3148.8689     -243354.97      2148.989      -241205.98      113.49986      65.627332      82.754639      5909.2186      6966.8662     -3429.478     
     82000   298.87794      4001.9626     -243388.61      2136.212      -241252.4       113.49986      65.627332      82.754639      7435.1654      7016.4055     -2445.683     
     83000   299.67909      3888.5612     -243414.14      2141.9383     -241272.21      113.49986      65.627332      82.754639      6825.4796      6164.4283     -1324.2243    
     84000   300.52987      3278.6945     -243439.3       2148.0191     -241291.29      113.49986      65.627332      82.754639      5863.8519      6310.8545     -2338.6231    
     85000   300.34475      3458.0377     -243446.55      2146.696      -241299.85      113.49986      65.627332      82.754639      5866.7059      7218.7023     -2711.2952    
     86000   299.86865      4257.4349     -243468.22      2143.2931     -241324.92      113.49986      65.627332      82.754639      7011.7906      7646.7755     -1886.2614    
     87000   300.33203      3841.2175     -243487.98      2146.6051     -241341.37      113.49986      65.627332      82.754639      7021.5991      6971.0236     -2468.9702    
     88000   298.17163      4096.3916     -243489.54      2131.1637     -241358.37      113.49986      65.627332      82.754639      7634.3613      7256.4792     -2601.6657    
     89000   300.07798      3347.8029     -243513.16      2144.7892     -241368.38      113.49986      65.627332      82.754639      6473.0982      6574.9696     -3004.6592    
     90000   300.83709      3667.3248     -243516.67      2150.2149     -241366.46      113.49986      65.627332      82.754639      6450.84        6928.1016     -2376.9671    
Loop time of 7011.85 on 1 procs for 20000 steps with 55296 atoms

Performance: 0.246 ns/day, 97.387 hours/ns, 2.852 timesteps/s, 157.722 katom-step/s
98.5% CPU use with 1 MPI tasks x no OpenMP threads

MPI task timing breakdown:
Section |  min time  |  avg time  |  max time  |%varavg| %total
---------------------------------------------------------------
Pair    | 6961.8     | 6961.8     | 6961.8     |   0.0 | 99.29
Neigh   | 13.417     | 13.417     | 13.417     |   0.0 |  0.19
Comm    | 5.3103     | 5.3103     | 5.3103     |   0.0 |  0.08
Output  | 0.011336   | 0.011336   | 0.011336   |   0.0 |  0.00
Modify  | 27.324     | 27.324     | 27.324     |   0.0 |  0.39
Other   |            | 3.944      |            |       |  0.06

Nlocal:          55296 ave       55296 max       55296 min
Histogram: 1 0 0 0 0 0 0 0 0 0
Nghost:          22996 ave       22996 max       22996 min
Histogram: 1 0 0 0 0 0 0 0 0 0
Neighs:    1.27797e+06 ave 1.27797e+06 max 1.27797e+06 min
Histogram: 1 0 0 0 0 0 0 0 0 0
FullNghs:  2.55593e+06 ave 2.55593e+06 max 2.55593e+06 min
Histogram: 1 0 0 0 0 0 0 0 0 0

Total # of neighbors = 2555932
Ave neighs/atom = 46.222729
Neighbor list builds = 82
Dangerous builds = 0
System init for write_data ...
>>> Equilibration complete. Ready for cascade runs.
Setting up Verlet run ...
  Unit style    : metal
  Current step  : 90000
  Time step     : 0.001
Per MPI rank memory allocation (min/avg/max) = 31.41 | 31.41 | 31.41 Mbytes
   Step          Temp          Press          PotEng         KinEng         TotEng           Lx             Ly             Lz            Pxx            Pyy            Pzz      
     90000   300.83709      3667.3248     -243516.67      2150.2149     -241366.46      113.49986      65.627332      82.754639      6450.84        6928.1016     -2376.9671    
     91000   286.80551      3880.3984     -243633.61      2049.9251     -241583.69      113.49986      65.627332      82.754639      6674.9087      6912.8717     -1946.5852    
     92000   270.90507      2952.4961     -243757.15      1936.2776     -241820.88      113.49986      65.627332      82.754639      5228.2981      6674.807      -3045.6168    
     93000   257.35709      2948.0858     -243897.39      1839.4443     -242057.94      113.49986      65.627332      82.754639      6639.7023      5493.2044     -3288.6494    
     94000   242.07854      2156.4844     -244019.81      1730.2418     -242289.57      113.49986      65.627332      82.754639      5803.4592      5050.4057     -4384.4117    
     95000   226.63847      2121.5082     -244139.57      1619.8848     -242519.68      113.49986      65.627332      82.754639      5135.0929      5874.1202     -4644.6884    
     96000   212.21535      1139.5319     -244267.18      1516.7964     -242750.39      113.49986      65.627332      82.754639      4564.7823      4439.6466     -5585.8333    
     97000   196.64548      974.04275     -244383.27      1405.5117     -242977.76      113.49986      65.627332      82.754639      4214.083       4265.7667     -5557.7215    
     98000   180.73249      799.38746     -244499.42      1291.7746     -243207.64      113.49986      65.627332      82.754639      3845.2872      4473.3355     -5920.4604    
     99000   167.7679      -143.48551     -244633.22      1199.1109     -243434.11      113.49986      65.627332      82.754639      3067.5489      3126.4306     -6624.4361    
    100000   152.37368     -130.50912     -244748.12      1089.0817     -243659.04      113.49986      65.627332      82.754639      3188.3227      3388.3567     -6968.2068    
    101000   137.13202     -878.98768     -244863.11      980.14284     -243882.96      113.49986      65.627332      82.754639      2418.5871      2384.628      -7440.1782    
    102000   123.14672     -1504.8349     -244986.57      880.18377     -244106.38      113.49986      65.627332      82.754639      1824.941       1898.7993     -8238.2449    
    103000   107.62663     -2182.7583     -245097.84      769.25483     -244328.58      113.49986      65.627332      82.754639      1124.1455      917.30154     -8589.7219    
    104000   93.02076      -2813.7537     -245211.51      664.86027     -244546.65      113.49986      65.627332      82.754639      302.8302       176.81009     -8920.9014    
    105000   78.054362     -3412.0329     -245321.72      557.88885     -244763.83      113.49986      65.627332      82.754639     -20.809141     -302.78842     -9912.5012    
    106000   63.2591       -3866.2645     -245430.84      452.1406      -244978.7       113.49986      65.627332      82.754639     -569.21195     -703.22122     -10326.36     
    107000   48.490273     -4544.2864     -245537.89      346.5813      -245191.31      113.49986      65.627332      82.754639     -1513.2783     -923.65434     -11195.926    
    108000   34.338381     -5174.9839     -245644.4       245.43151     -245398.97      113.49986      65.627332      82.754639     -2064.3233     -1914.1879     -11546.441    
    109000   20.151864     -5881.3017     -245744.67      144.03424     -245600.63      113.49986      65.627332      82.754639     -2849.7575     -2327.4067     -12466.741    
    110000   6.2145904     -6454.6162     -245845.66      44.41841      -245801.24      113.49986      65.627332      82.754639     -3461.8639     -2852.4015     -13049.583    
Loop time of 4030.74 on 1 procs for 20000 steps with 55296 atoms

Performance: 0.429 ns/day, 55.983 hours/ns, 4.962 timesteps/s, 274.371 katom-step/s
99.0% CPU use with 1 MPI tasks x no OpenMP threads

MPI task timing breakdown:
Section |  min time  |  avg time  |  max time  |%varavg| %total
---------------------------------------------------------------
Pair    | 4009.1     | 4009.1     | 4009.1     |   0.0 | 99.46
Neigh   | 0          | 0          | 0          |   0.0 |  0.00
Comm    | 3.0626     | 3.0626     | 3.0626     |   0.0 |  0.08
Output  | 0.0061261  | 0.0061261  | 0.0061261  |   0.0 |  0.00
Modify  | 16.273     | 16.273     | 16.273     |   0.0 |  0.40
Other   |            | 2.327      |            |       |  0.06

Nlocal:          55296 ave       55296 max       55296 min
Histogram: 1 0 0 0 0 0 0 0 0 0
Nghost:          23003 ave       23003 max       23003 min
Histogram: 1 0 0 0 0 0 0 0 0 0
Neighs:    1.27816e+06 ave 1.27816e+06 max 1.27816e+06 min
Histogram: 1 0 0 0 0 0 0 0 0 0
FullNghs:  2.55632e+06 ave 2.55632e+06 max 2.55632e+06 min
Histogram: 1 0 0 0 0 0 0 0 0 0

Total # of neighbors = 2556316
Ave neighs/atom = 46.229673
Neighbor list builds = 0
Dangerous builds = 0
Setting up cg style minimization ...
  Unit style    : metal
  Current step  : 110000
Per MPI rank memory allocation (min/avg/max) = 37.04 | 37.04 | 37.04 Mbytes
   Step          Temp          Press          PotEng         KinEng         TotEng           Lx             Ly             Lz            Pxx            Pyy            Pzz      
    110000   6.2145904     -6454.6162     -245845.66      44.41841      -245801.24      113.49986      65.627332      82.754639     -3461.8639     -2852.4015     -13049.583    
    110083   6.2145904     -6756.3629     -245890.39      44.41841      -245845.97      113.49986      65.627332      82.754639     -3687.5994     -3291.6637     -13289.826    
Loop time of 26.7928 on 1 procs for 83 steps with 55296 atoms

99.6% CPU use with 1 MPI tasks x no OpenMP threads

Minimization stats:
  Stopping criterion = energy tolerance
  Energy initial, next-to-last, final = 
     -245845.659804752  -245890.391283293  -245890.392767279
  Force two-norm initial, final = 63.345412 4.8910773
  Force max component initial, final = 17.127211 1.2546926
  Final line search alpha, max atom move = 0.0077204592 0.0096868028
  Iterations, force evaluations = 83 192

MPI task timing breakdown:
Section |  min time  |  avg time  |  max time  |%varavg| %total
---------------------------------------------------------------
Pair    | 26.592     | 26.592     | 26.592     |   0.0 | 99.25
Neigh   | 0          | 0          | 0          |   0.0 |  0.00
Comm    | 0.021925   | 0.021925   | 0.021925   |   0.0 |  0.08
Output  | 0          | 0          | 0          |   0.0 |  0.00
Modify  | 0          | 0          | 0          |   0.0 |  0.00
Other   |            | 0.1785     |            |       |  0.67

Nlocal:          55296 ave       55296 max       55296 min
Histogram: 1 0 0 0 0 0 0 0 0 0
Nghost:          22978 ave       22978 max       22978 min
Histogram: 1 0 0 0 0 0 0 0 0 0
Neighs:    1.28324e+06 ave 1.28324e+06 max 1.28324e+06 min
Histogram: 1 0 0 0 0 0 0 0 0 0
FullNghs:  2.56649e+06 ave 2.56649e+06 max 2.56649e+06 min
Histogram: 1 0 0 0 0 0 0 0 0 0

Total # of neighbors = 2566490
Ave neighs/atom = 46.413665
Neighbor list builds = 0
Dangerous builds = 0
System init for write_data ...
>>> 0K reference (post-NPT box) saved.
Total wall time: 19:50:09
